GLPSOL--GLPK LP/MIP Solver 5.0
Parameter(s) specified in the command line:
 -m ../GLPK/GraphColoringGLPK.mod -d queen9_9.col.dat -o ../sol/queen9_9.col.dat.sol
Reading model section from ../GLPK/GraphColoringGLPK.mod...
../GLPK/GraphColoringGLPK.mod:28: warning: unexpected end of file; missing end statement inserted
28 lines were read
Reading data section from queen9_9.col.dat...
queen9_9.col.dat:99: duplicate tuple (2,1) detected
Context:  2 ) ( 2 , 65 ) ( 65 , 2 ) ( 2 , 74 ) ( 74 , 2 ) ( 2 , 1 ) (
MathProg model processing error
